c Erdos-Renyi G(100, 0.5), seed=42
p edge 100 2449
e 1 3
e 1 4
e 1 5
e 1 9
e 1 10
e 1 11
e 1 12
e 1 14
e 1 15
e 1 18
e 1 21
e 1 24
e 1 25
e 1 27
e 1 28
e 1 29
e 1 36
e 1 43
e 1 44
e 1 45
e 1 46
e 1 47
e 1 48
e 1 49
e 1 51
e 1 52
e 1 53
e 1 54
e 1 58
e 1 60
e 1 61
e 1 68
e 1 69
e 1 70
e 1 71
e 1 72
e 1 75
e 1 77
e 1 79
e 1 80
e 1 81
e 1 83
e 1 86
e 1 87
e 1 90
e 1 91
e 1 92
e 1 95
e 1 96
e 1 97
e 2 4
e 2 8
e 2 10
e 2 11
e 2 12
e 2 15
e 2 17
e 2 20
e 2 23
e 2 28
e 2 29
e 2 30
e 2 34
e 2 35
e 2 38
e 2 39
e 2 40
e 2 43
e 2 44
e 2 46
e 2 48
e 2 49
e 2 52
e 2 53
e 2 56
e 2 58
e 2 59
e 2 60
e 2 62
e 2 63
e 2 64
e 2 66
e 2 69
e 2 70
e 2 72
e 2 73
e 2 76
e 2 79
e 2 80
e 2 81
e 2 82
e 2 83
e 2 87
e 2 88
e 2 89
e 2 91
e 2 92
e 2 93
e 2 94
e 2 95
e 2 96
e 2 98
e 3 4
e 3 10
e 3 11
e 3 12
e 3 13
e 3 14
e 3 15
e 3 17
e 3 19
e 3 20
e 3 25
e 3 26
e 3 31
e 3 35
e 3 37
e 3 38
e 3 41
e 3 42
e 3 44
e 3 47
e 3 51
e 3 53
e 3 54
e 3 56
e 3 57
e 3 59
e 3 60
e 3 63
e 3 64
e 3 65
e 3 69
e 3 70
e 3 76
e 3 78
e 3 81
e 3 82
e 3 83
e 3 85
e 3 88
e 3 90
e 3 91
e 3 94
e 3 95
e 3 96
e 3 97
e 3 100
e 4 7
e 4 8
e 4 9
e 4 15
e 4 16
e 4 17
e 4 22
e 4 23
e 4 24
e 4 27
e 4 29
e 4 35
e 4 37
e 4 42
e 4 44
e 4 47
e 4 49
e 4 50
e 4 52
e 4 53
e 4 54
e 4 55
e 4 58
e 4 60
e 4 64
e 4 66
e 4 68
e 4 69
e 4 70
e 4 72
e 4 75
e 4 77
e 4 79
e 4 85
e 4 86
e 4 88
e 4 89
e 4 92
e 4 93
e 4 94
e 4 95
e 4 96
e 4 97
e 4 98
e 5 8
e 5 10
e 5 11
e 5 12
e 5 15
e 5 16
e 5 17
e 5 18
e 5 21
e 5 22
e 5 25
e 5 29
e 5 30
e 5 31
e 5 32
e 5 33
e 5 35
e 5 36
e 5 38
e 5 40
e 5 41
e 5 43
e 5 46
e 5 47
e 5 48
e 5 51
e 5 52
e 5 54
e 5 68
e 5 69
e 5 70
e 5 75
e 5 76
e 5 77
e 5 78
e 5 79
e 5 81
e 5 82
e 5 85
e 5 86
e 5 88
e 5 89
e 5 90
e 5 96
e 5 97
e 5 98
e 6 8
e 6 12
e 6 13
e 6 14
e 6 15
e 6 16
e 6 18
e 6 19
e 6 20
e 6 21
e 6 23
e 6 24
e 6 26
e 6 28
e 6 29
e 6 30
e 6 31
e 6 32
e 6 33
e 6 35
e 6 38
e 6 39
e 6 40
e 6 43
e 6 49
e 6 50
e 6 51
e 6 52
e 6 55
e 6 58
e 6 61
e 6 64
e 6 65
e 6 66
e 6 69
e 6 71
e 6 74
e 6 78
e 6 81
e 6 82
e 6 83
e 6 85
e 6 88
e 6 93
e 6 96
e 6 99
e 6 100
e 7 9
e 7 12
e 7 14
e 7 15
e 7 17
e 7 18
e 7 20
e 7 21
e 7 23
e 7 26
e 7 27
e 7 29
e 7 31
e 7 35
e 7 37
e 7 38
e 7 40
e 7 42
e 7 44
e 7 46
e 7 48
e 7 49
e 7 50
e 7 51
e 7 52
e 7 55
e 7 56
e 7 57
e 7 61
e 7 62
e 7 63
e 7 64
e 7 65
e 7 66
e 7 68
e 7 72
e 7 74
e 7 77
e 7 78
e 7 79
e 7 80
e 7 82
e 7 84
e 7 85
e 7 87
e 7 88
e 7 90
e 7 92
e 7 96
e 7 98
e 7 99
e 8 10
e 8 15
e 8 16
e 8 18
e 8 19
e 8 20
e 8 21
e 8 22
e 8 24
e 8 25
e 8 28
e 8 35
e 8 40
e 8 41
e 8 42
e 8 45
e 8 46
e 8 51
e 8 52
e 8 53
e 8 54
e 8 55
e 8 56
e 8 57
e 8 64
e 8 65
e 8 67
e 8 70
e 8 73
e 8 74
e 8 75
e 8 76
e 8 79
e 8 81
e 8 85
e 8 86
e 8 87
e 8 89
e 8 94
e 8 95
e 8 96
e 8 100
e 9 12
e 9 14
e 9 17
e 9 18
e 9 21
e 9 24
e 9 25
e 9 27
e 9 30
e 9 33
e 9 35
e 9 40
e 9 42
e 9 46
e 9 47
e 9 50
e 9 51
e 9 53
e 9 56
e 9 57
e 9 58
e 9 61
e 9 63
e 9 67
e 9 71
e 9 72
e 9 77
e 9 79
e 9 81
e 9 83
e 9 84
e 9 86
e 9 92
e 9 93
e 9 97
e 9 98
e 10 13
e 10 14
e 10 17
e 10 20
e 10 22
e 10 23
e 10 24
e 10 28
e 10 29
e 10 32
e 10 34
e 10 35
e 10 36
e 10 37
e 10 38
e 10 42
e 10 43
e 10 44
e 10 47
e 10 48
e 10 50
e 10 51
e 10 52
e 10 53
e 10 57
e 10 60
e 10 64
e 10 66
e 10 68
e 10 71
e 10 81
e 10 82
e 10 85
e 10 86
e 10 88
e 10 89
e 10 95
e 10 97
e 10 100
e 11 12
e 11 14
e 11 21
e 11 23
e 11 25
e 11 31
e 11 32
e 11 33
e 11 37
e 11 38
e 11 41
e 11 42
e 11 43
e 11 45
e 11 46
e 11 47
e 11 49
e 11 50
e 11 54
e 11 56
e 11 57
e 11 58
e 11 59
e 11 60
e 11 62
e 11 63
e 11 64
e 11 67
e 11 71
e 11 72
e 11 73
e 11 74
e 11 76
e 11 80
e 11 82
e 11 83
e 11 85
e 11 87
e 11 88
e 11 90
e 11 91
e 11 93
e 11 95
e 11 96
e 11 97
e 11 98
e 11 100
e 12 13
e 12 15
e 12 16
e 12 17
e 12 18
e 12 22
e 12 25
e 12 28
e 12 32
e 12 34
e 12 35
e 12 36
e 12 38
e 12 40
e 12 41
e 12 43
e 12 44
e 12 47
e 12 50
e 12 52
e 12 58
e 12 59
e 12 60
e 12 61
e 12 62
e 12 63
e 12 64
e 12 65
e 12 67
e 12 68
e 12 70
e 12 72
e 12 73
e 12 79
e 12 80
e 12 81
e 12 88
e 12 90
e 12 92
e 12 93
e 12 95
e 13 17
e 13 20
e 13 21
e 13 23
e 13 24
e 13 25
e 13 28
e 13 29
e 13 31
e 13 33
e 13 34
e 13 35
e 13 36
e 13 40
e 13 41
e 13 42
e 13 45
e 13 47
e 13 48
e 13 49
e 13 51
e 13 52
e 13 53
e 13 55
e 13 57
e 13 58
e 13 60
e 13 61
e 13 62
e 13 63
e 13 64
e 13 65
e 13 66
e 13 68
e 13 69
e 13 74
e 13 76
e 13 77
e 13 83
e 13 84
e 13 85
e 13 86
e 13 91
e 13 93
e 13 96
e 13 97
e 13 98
e 13 99
e 13 100
e 14 16
e 14 19
e 14 23
e 14 24
e 14 25
e 14 29
e 14 31
e 14 34
e 14 41
e 14 42
e 14 43
e 14 44
e 14 45
e 14 46
e 14 48
e 14 49
e 14 50
e 14 52
e 14 57
e 14 61
e 14 64
e 14 65
e 14 66
e 14 67
e 14 68
e 14 70
e 14 73
e 14 74
e 14 75
e 14 76
e 14 78
e 14 79
e 14 80
e 14 81
e 14 82
e 14 86
e 14 87
e 14 89
e 14 94
e 14 96
e 14 97
e 14 100
e 15 18
e 15 19
e 15 28
e 15 29
e 15 30
e 15 31
e 15 32
e 15 34
e 15 35
e 15 36
e 15 37
e 15 39
e 15 43
e 15 44
e 15 46
e 15 47
e 15 48
e 15 52
e 15 53
e 15 54
e 15 56
e 15 57
e 15 58
e 15 60
e 15 62
e 15 64
e 15 66
e 15 69
e 15 70
e 15 71
e 15 76
e 15 77
e 15 81
e 15 84
e 15 86
e 15 88
e 15 89
e 15 91
e 15 92
e 15 93
e 15 94
e 15 95
e 15 97
e 15 99
e 15 100
e 16 21
e 16 22
e 16 25
e 16 27
e 16 28
e 16 29
e 16 30
e 16 35
e 16 36
e 16 37
e 16 38
e 16 39
e 16 41
e 16 42
e 16 45
e 16 47
e 16 48
e 16 49
e 16 51
e 16 52
e 16 54
e 16 56
e 16 61
e 16 62
e 16 65
e 16 66
e 16 68
e 16 73
e 16 74
e 16 77
e 16 79
e 16 83
e 16 85
e 16 86
e 16 87
e 16 88
e 16 89
e 16 94
e 16 96
e 16 97
e 16 100
e 17 18
e 17 19
e 17 23
e 17 25
e 17 26
e 17 31
e 17 35
e 17 36
e 17 38
e 17 40
e 17 42
e 17 43
e 17 45
e 17 47
e 17 50
e 17 52
e 17 56
e 17 59
e 17 60
e 17 62
e 17 63
e 17 68
e 17 72
e 17 74
e 17 75
e 17 77
e 17 78
e 17 80
e 17 81
e 17 82
e 17 84
e 17 86
e 17 87
e 17 89
e 17 91
e 17 92
e 17 95
e 17 96
e 17 97
e 18 24
e 18 25
e 18 26
e 18 28
e 18 30
e 18 34
e 18 35
e 18 41
e 18 44
e 18 46
e 18 50
e 18 52
e 18 54
e 18 55
e 18 56
e 18 57
e 18 58
e 18 60
e 18 64
e 18 67
e 18 68
e 18 71
e 18 73
e 18 80
e 18 81
e 18 86
e 18 88
e 18 90
e 18 92
e 18 95
e 18 96
e 18 97
e 18 98
e 18 99
e 18 100
e 19 21
e 19 26
e 19 27
e 19 29
e 19 30
e 19 31
e 19 32
e 19 33
e 19 34
e 19 35
e 19 37
e 19 39
e 19 40
e 19 42
e 19 44
e 19 46
e 19 47
e 19 48
e 19 52
e 19 53
e 19 54
e 19 55
e 19 58
e 19 61
e 19 65
e 19 66
e 19 68
e 19 70
e 19 73
e 19 76
e 19 78
e 19 80
e 19 83
e 19 86
e 19 87
e 19 88
e 19 89
e 19 90
e 19 93
e 19 95
e 19 98
e 19 99
e 20 23
e 20 25
e 20 32
e 20 33
e 20 40
e 20 44
e 20 46
e 20 48
e 20 49
e 20 50
e 20 51
e 20 53
e 20 58
e 20 59
e 20 60
e 20 61
e 20 64
e 20 65
e 20 67
e 20 68
e 20 74
e 20 75
e 20 77
e 20 79
e 20 80
e 20 81
e 20 83
e 20 84
e 20 87
e 20 88
e 20 90
e 20 95
e 20 96
e 20 98
e 20 99
e 20 100
e 21 22
e 21 23
e 21 27
e 21 30
e 21 34
e 21 35
e 21 37
e 21 39
e 21 42
e 21 45
e 21 46
e 21 48
e 21 51
e 21 57
e 21 59
e 21 62
e 21 63
e 21 68
e 21 70
e 21 72
e 21 75
e 21 78
e 21 79
e 21 80
e 21 81
e 21 82
e 21 83
e 21 84
e 21 89
e 21 94
e 21 96
e 21 97
e 21 98
e 21 99
e 21 100
e 22 23
e 22 26
e 22 28
e 22 31
e 22 32
e 22 33
e 22 34
e 22 38
e 22 39
e 22 41
e 22 43
e 22 44
e 22 45
e 22 48
e 22 50
e 22 53
e 22 54
e 22 57
e 22 58
e 22 60
e 22 62
e 22 66
e 22 67
e 22 69
e 22 70
e 22 72
e 22 75
e 22 77
e 22 78
e 22 79
e 22 82
e 22 86
e 22 87
e 22 88
e 22 91
e 22 93
e 22 94
e 22 99
e 23 24
e 23 27
e 23 32
e 23 33
e 23 37
e 23 38
e 23 39
e 23 40
e 23 45
e 23 46
e 23 47
e 23 50
e 23 52
e 23 55
e 23 56
e 23 57
e 23 58
e 23 61
e 23 63
e 23 64
e 23 65
e 23 67
e 23 69
e 23 72
e 23 75
e 23 76
e 23 77
e 23 79
e 23 80
e 23 81
e 23 86
e 23 87
e 23 92
e 23 93
e 23 94
e 23 95
e 23 97
e 23 99
e 24 30
e 24 31
e 24 32
e 24 36
e 24 38
e 24 39
e 24 43
e 24 47
e 24 49
e 24 51
e 24 54
e 24 56
e 24 57
e 24 59
e 24 63
e 24 65
e 24 66
e 24 68
e 24 69
e 24 71
e 24 74
e 24 75
e 24 77
e 24 78
e 24 79
e 24 82
e 24 83
e 24 84
e 24 85
e 24 87
e 24 90
e 24 94
e 24 95
e 24 97
e 24 99
e 25 28
e 25 29
e 25 34
e 25 36
e 25 38
e 25 40
e 25 44
e 25 45
e 25 46
e 25 48
e 25 50
e 25 52
e 25 57
e 25 58
e 25 59
e 25 60
e 25 63
e 25 64
e 25 65
e 25 66
e 25 69
e 25 75
e 25 76
e 25 78
e 25 79
e 25 80
e 25 81
e 25 82
e 25 86
e 25 88
e 25 89
e 25 92
e 25 93
e 25 94
e 25 98
e 25 100
e 26 31
e 26 32
e 26 33
e 26 34
e 26 36
e 26 38
e 26 40
e 26 45
e 26 46
e 26 48
e 26 51
e 26 53
e 26 54
e 26 56
e 26 57
e 26 59
e 26 62
e 26 66
e 26 67
e 26 71
e 26 72
e 26 73
e 26 74
e 26 75
e 26 76
e 26 77
e 26 78
e 26 79
e 26 81
e 26 82
e 26 83
e 26 84
e 26 86
e 26 87
e 26 88
e 26 89
e 26 90
e 26 95
e 26 96
e 26 97
e 26 98
e 26 99
e 26 100
e 27 28
e 27 29
e 27 30
e 27 31
e 27 32
e 27 33
e 27 36
e 27 37
e 27 38
e 27 40
e 27 43
e 27 44
e 27 48
e 27 49
e 27 51
e 27 52
e 27 55
e 27 57
e 27 59
e 27 60
e 27 62
e 27 63
e 27 70
e 27 72
e 27 73
e 27 77
e 27 78
e 27 80
e 27 84
e 27 86
e 27 87
e 27 93
e 27 97
e 27 100
e 28 30
e 28 33
e 28 36
e 28 37
e 28 38
e 28 43
e 28 44
e 28 48
e 28 49
e 28 50
e 28 51
e 28 53
e 28 55
e 28 56
e 28 57
e 28 58
e 28 59
e 28 60
e 28 61
e 28 63
e 28 64
e 28 66
e 28 70
e 28 72
e 28 73
e 28 74
e 28 77
e 28 78
e 28 79
e 28 81
e 28 82
e 28 84
e 28 86
e 28 88
e 28 91
e 28 92
e 28 94
e 28 95
e 28 96
e 28 97
e 29 33
e 29 38
e 29 40
e 29 41
e 29 42
e 29 43
e 29 44
e 29 47
e 29 48
e 29 49
e 29 50
e 29 56
e 29 57
e 29 58
e 29 59
e 29 60
e 29 61
e 29 62
e 29 63
e 29 67
e 29 69
e 29 71
e 29 72
e 29 73
e 29 75
e 29 76
e 29 78
e 29 79
e 29 83
e 29 84
e 29 87
e 29 89
e 29 93
e 29 96
e 29 98
e 29 99
e 30 31
e 30 34
e 30 37
e 30 40
e 30 41
e 30 42
e 30 43
e 30 44
e 30 45
e 30 46
e 30 48
e 30 50
e 30 51
e 30 55
e 30 61
e 30 63
e 30 68
e 30 70
e 30 71
e 30 72
e 30 75
e 30 77
e 30 79
e 30 81
e 30 82
e 30 86
e 30 88
e 30 89
e 30 91
e 30 92
e 30 93
e 30 94
e 30 96
e 30 99
e 30 100
e 31 33
e 31 34
e 31 36
e 31 37
e 31 39
e 31 40
e 31 42
e 31 44
e 31 46
e 31 48
e 31 50
e 31 51
e 31 53
e 31 54
e 31 55
e 31 57
e 31 60
e 31 61
e 31 62
e 31 63
e 31 65
e 31 69
e 31 70
e 31 71
e 31 72
e 31 74
e 31 75
e 31 77
e 31 80
e 31 82
e 31 84
e 31 86
e 31 89
e 31 90
e 31 93
e 31 94
e 31 97
e 31 99
e 31 100
e 32 33
e 32 34
e 32 42
e 32 46
e 32 47
e 32 50
e 32 51
e 32 52
e 32 58
e 32 61
e 32 66
e 32 67
e 32 68
e 32 69
e 32 70
e 32 75
e 32 77
e 32 80
e 32 81
e 32 83
e 32 86
e 32 90
e 32 94
e 32 95
e 32 96
e 32 97
e 32 99
e 33 35
e 33 38
e 33 43
e 33 44
e 33 46
e 33 49
e 33 51
e 33 52
e 33 55
e 33 56
e 33 57
e 33 58
e 33 60
e 33 61
e 33 62
e 33 65
e 33 67
e 33 69
e 33 70
e 33 71
e 33 72
e 33 78
e 33 79
e 33 80
e 33 82
e 33 83
e 33 84
e 33 87
e 33 91
e 33 92
e 33 93
e 33 95
e 33 97
e 33 98
e 33 100
e 34 36
e 34 38
e 34 40
e 34 43
e 34 44
e 34 45
e 34 46
e 34 47
e 34 51
e 34 55
e 34 57
e 34 58
e 34 59
e 34 62
e 34 67
e 34 69
e 34 70
e 34 71
e 34 73
e 34 75
e 34 77
e 34 78
e 34 79
e 34 83
e 34 84
e 34 85
e 34 86
e 34 89
e 34 90
e 34 91
e 34 92
e 34 95
e 34 96
e 34 97
e 34 98
e 34 99
e 35 38
e 35 40
e 35 41
e 35 42
e 35 43
e 35 46
e 35 48
e 35 49
e 35 50
e 35 52
e 35 53
e 35 55
e 35 56
e 35 59
e 35 61
e 35 65
e 35 67
e 35 68
e 35 70
e 35 71
e 35 74
e 35 75
e 35 76
e 35 77
e 35 80
e 35 81
e 35 83
e 35 84
e 35 85
e 35 86
e 35 88
e 35 90
e 35 91
e 35 92
e 35 94
e 35 95
e 35 96
e 35 97
e 36 41
e 36 43
e 36 46
e 36 47
e 36 48
e 36 49
e 36 52
e 36 58
e 36 60
e 36 63
e 36 65
e 36 68
e 36 71
e 36 76
e 36 81
e 36 84
e 36 85
e 36 86
e 36 87
e 36 88
e 36 89
e 36 91
e 36 93
e 36 94
e 36 98
e 36 99
e 37 43
e 37 45
e 37 46
e 37 47
e 37 48
e 37 49
e 37 54
e 37 59
e 37 61
e 37 62
e 37 64
e 37 68
e 37 71
e 37 75
e 37 78
e 37 80
e 37 82
e 37 84
e 37 88
e 37 89
e 37 90
e 37 91
e 37 92
e 37 93
e 37 94
e 37 95
e 37 99
e 37 100
e 38 40
e 38 41
e 38 45
e 38 46
e 38 48
e 38 49
e 38 51
e 38 52
e 38 53
e 38 57
e 38 60
e 38 61
e 38 63
e 38 65
e 38 66
e 38 67
e 38 68
e 38 72
e 38 73
e 38 74
e 38 75
e 38 78
e 38 79
e 38 80
e 38 81
e 38 84
e 38 85
e 38 86
e 38 87
e 38 88
e 38 90
e 38 91
e 38 92
e 38 94
e 38 96
e 38 98
e 38 99
e 38 100
e 39 40
e 39 41
e 39 42
e 39 43
e 39 46
e 39 47
e 39 54
e 39 57
e 39 59
e 39 60
e 39 68
e 39 70
e 39 74
e 39 75
e 39 77
e 39 81
e 39 84
e 39 85
e 39 86
e 39 87
e 39 88
e 39 89
e 39 94
e 39 95
e 39 96
e 40 42
e 40 43
e 40 45
e 40 46
e 40 47
e 40 48
e 40 50
e 40 51
e 40 52
e 40 55
e 40 57
e 40 58
e 40 62
e 40 64
e 40 65
e 40 66
e 40 68
e 40 70
e 40 72
e 40 74
e 40 75
e 40 77
e 40 78
e 40 85
e 40 86
e 40 88
e 40 91
e 40 92
e 40 95
e 40 96
e 40 99
e 41 44
e 41 45
e 41 46
e 41 48
e 41 51
e 41 52
e 41 56
e 41 57
e 41 58
e 41 64
e 41 65
e 41 66
e 41 69
e 41 73
e 41 74
e 41 76
e 41 79
e 41 80
e 41 81
e 41 82
e 41 83
e 41 86
e 41 87
e 41 91
e 41 94
e 41 95
e 41 96
e 41 100
e 42 45
e 42 46
e 42 57
e 42 58
e 42 59
e 42 60
e 42 63
e 42 65
e 42 74
e 42 75
e 42 76
e 42 77
e 42 80
e 42 82
e 42 83
e 42 84
e 42 86
e 42 88
e 42 89
e 42 90
e 42 92
e 42 96
e 42 100
e 43 44
e 43 45
e 43 47
e 43 48
e 43 49
e 43 52
e 43 53
e 43 56
e 43 58
e 43 60
e 43 61
e 43 63
e 43 65
e 43 67
e 43 70
e 43 72
e 43 73
e 43 74
e 43 75
e 43 76
e 43 77
e 43 79
e 43 82
e 43 84
e 43 85
e 43 86
e 43 88
e 43 90
e 43 91
e 43 94
e 43 97
e 43 99
e 43 100
e 44 47
e 44 48
e 44 50
e 44 53
e 44 54
e 44 56
e 44 58
e 44 60
e 44 64
e 44 66
e 44 67
e 44 69
e 44 70
e 44 73
e 44 76
e 44 78
e 44 80
e 44 82
e 44 83
e 44 84
e 44 85
e 44 86
e 44 87
e 44 89
e 44 91
e 44 92
e 44 93
e 44 94
e 44 96
e 44 97
e 45 47
e 45 48
e 45 51
e 45 52
e 45 53
e 45 55
e 45 56
e 45 57
e 45 58
e 45 59
e 45 60
e 45 62
e 45 64
e 45 66
e 45 69
e 45 70
e 45 71
e 45 74
e 45 76
e 45 77
e 45 79
e 45 80
e 45 85
e 45 87
e 45 89
e 45 90
e 45 94
e 45 95
e 45 96
e 45 97
e 46 47
e 46 49
e 46 50
e 46 51
e 46 52
e 46 53
e 46 61
e 46 64
e 46 66
e 46 67
e 46 69
e 46 73
e 46 75
e 46 79
e 46 80
e 46 81
e 46 83
e 46 84
e 46 86
e 46 87
e 46 88
e 46 90
e 46 92
e 46 93
e 46 94
e 46 96
e 46 97
e 46 99
e 46 100
e 47 50
e 47 52
e 47 55
e 47 56
e 47 57
e 47 58
e 47 61
e 47 64
e 47 66
e 47 67
e 47 70
e 47 73
e 47 74
e 47 75
e 47 78
e 47 80
e 47 82
e 47 83
e 47 86
e 47 87
e 47 92
e 47 95
e 47 96
e 47 98
e 48 49
e 48 52
e 48 55
e 48 56
e 48 60
e 48 64
e 48 67
e 48 68
e 48 69
e 48 72
e 48 78
e 48 80
e 48 81
e 48 88
e 48 89
e 48 90
e 48 91
e 48 94
e 48 97
e 49 50
e 49 51
e 49 53
e 49 55
e 49 56
e 49 57
e 49 60
e 49 62
e 49 64
e 49 70
e 49 73
e 49 76
e 49 79
e 49 81
e 49 82
e 49 95
e 49 96
e 49 98
e 49 99
e 50 51
e 50 52
e 50 54
e 50 56
e 50 57
e 50 59
e 50 60
e 50 61
e 50 62
e 50 66
e 50 68
e 50 70
e 50 71
e 50 72
e 50 73
e 50 75
e 50 77
e 50 78
e 50 79
e 50 80
e 50 81
e 50 82
e 50 88
e 50 90
e 50 96
e 50 99
e 51 52
e 51 55
e 51 57
e 51 58
e 51 60
e 51 63
e 51 66
e 51 67
e 51 71
e 51 72
e 51 80
e 51 81
e 51 82
e 51 83
e 51 84
e 51 88
e 51 89
e 51 90
e 51 92
e 51 93
e 52 53
e 52 55
e 52 57
e 52 58
e 52 60
e 52 61
e 52 63
e 52 65
e 52 66
e 52 70
e 52 75
e 52 79
e 52 80
e 52 84
e 52 87
e 52 88
e 52 91
e 52 92
e 52 94
e 52 95
e 53 54
e 53 56
e 53 57
e 53 58
e 53 60
e 53 61
e 53 62
e 53 64
e 53 67
e 53 68
e 53 70
e 53 73
e 53 74
e 53 75
e 53 76
e 53 77
e 53 78
e 53 80
e 53 82
e 53 85
e 53 86
e 53 87
e 53 89
e 53 93
e 53 95
e 53 97
e 53 98
e 53 99
e 54 55
e 54 57
e 54 63
e 54 65
e 54 66
e 54 69
e 54 70
e 54 72
e 54 78
e 54 80
e 54 81
e 54 86
e 54 87
e 54 88
e 54 89
e 54 90
e 54 91
e 54 92
e 54 93
e 54 95
e 54 96
e 54 97
e 54 98
e 54 100
e 55 60
e 55 62
e 55 64
e 55 68
e 55 71
e 55 73
e 55 74
e 55 77
e 55 78
e 55 79
e 55 81
e 55 82
e 55 83
e 55 85
e 55 86
e 55 89
e 55 90
e 55 91
e 55 92
e 55 94
e 55 95
e 55 97
e 55 99
e 56 57
e 56 58
e 56 59
e 56 63
e 56 66
e 56 67
e 56 68
e 56 71
e 56 76
e 56 78
e 56 80
e 56 81
e 56 83
e 56 84
e 56 85
e 56 86
e 56 89
e 56 90
e 56 91
e 56 92
e 56 94
e 56 97
e 56 98
e 56 99
e 57 63
e 57 64
e 57 66
e 57 69
e 57 74
e 57 75
e 57 76
e 57 77
e 57 79
e 57 81
e 57 82
e 57 86
e 57 87
e 57 90
e 57 91
e 57 92
e 57 94
e 57 96
e 57 97
e 57 98
e 58 59
e 58 61
e 58 62
e 58 64
e 58 65
e 58 66
e 58 72
e 58 74
e 58 75
e 58 76
e 58 77
e 58 81
e 58 83
e 58 84
e 58 85
e 58 87
e 58 88
e 58 89
e 58 90
e 58 91
e 58 92
e 59 60
e 59 61
e 59 64
e 59 65
e 59 68
e 59 69
e 59 70
e 59 71
e 59 72
e 59 73
e 59 76
e 59 77
e 59 81
e 59 82
e 59 83
e 59 86
e 59 88
e 59 90
e 59 93
e 59 94
e 59 95
e 59 96
e 59 97
e 60 70
e 60 71
e 60 73
e 60 74
e 60 75
e 60 79
e 60 80
e 60 83
e 60 85
e 60 86
e 60 89
e 60 91
e 60 92
e 60 94
e 60 98
e 60 99
e 61 63
e 61 64
e 61 65
e 61 67
e 61 68
e 61 75
e 61 76
e 61 78
e 61 82
e 61 85
e 61 86
e 61 88
e 61 90
e 61 93
e 61 95
e 61 98
e 61 100
e 62 63
e 62 65
e 62 67
e 62 69
e 62 70
e 62 72
e 62 73
e 62 74
e 62 76
e 62 78
e 62 79
e 62 80
e 62 82
e 62 83
e 62 84
e 62 85
e 62 86
e 62 87
e 62 88
e 62 90
e 62 92
e 62 93
e 62 99
e 63 65
e 63 67
e 63 69
e 63 71
e 63 72
e 63 73
e 63 76
e 63 77
e 63 78
e 63 81
e 63 84
e 63 86
e 63 88
e 63 91
e 63 92
e 63 94
e 63 95
e 63 97
e 64 65
e 64 66
e 64 67
e 64 68
e 64 69
e 64 70
e 64 72
e 64 73
e 64 75
e 64 78
e 64 79
e 64 80
e 64 85
e 64 86
e 64 87
e 64 88
e 64 91
e 64 92
e 64 94
e 64 95
e 64 96
e 64 99
e 64 100
e 65 66
e 65 68
e 65 70
e 65 73
e 65 74
e 65 77
e 65 78
e 65 81
e 65 88
e 65 89
e 65 92
e 65 93
e 65 94
e 65 95
e 65 96
e 65 99
e 65 100
e 66 67
e 66 70
e 66 71
e 66 72
e 66 73
e 66 74
e 66 75
e 66 76
e 66 77
e 66 79
e 66 80
e 66 82
e 66 83
e 66 84
e 66 85
e 66 86
e 66 91
e 66 94
e 66 96
e 66 97
e 66 100
e 67 69
e 67 70
e 67 71
e 67 73
e 67 74
e 67 75
e 67 78
e 67 79
e 67 80
e 67 81
e 67 82
e 67 85
e 67 87
e 67 90
e 67 92
e 67 93
e 67 94
e 67 98
e 67 100
e 68 70
e 68 72
e 68 73
e 68 77
e 68 79
e 68 80
e 68 82
e 68 85
e 68 87
e 68 90
e 68 91
e 68 93
e 68 94
e 68 95
e 68 96
e 68 98
e 68 99
e 69 70
e 69 72
e 69 73
e 69 74
e 69 75
e 69 80
e 69 84
e 69 85
e 69 90
e 69 91
e 69 93
e 69 94
e 69 96
e 69 97
e 69 98
e 69 100
e 70 71
e 70 72
e 70 74
e 70 78
e 70 79
e 70 80
e 70 81
e 70 82
e 70 83
e 70 85
e 70 86
e 70 87
e 70 90
e 70 94
e 70 96
e 70 99
e 71 72
e 71 74
e 71 76
e 71 78
e 71 79
e 71 80
e 71 86
e 71 87
e 71 89
e 71 91
e 71 92
e 71 94
e 71 96
e 71 99
e 71 100
e 72 75
e 72 76
e 72 77
e 72 78
e 72 81
e 72 84
e 72 86
e 72 88
e 72 90
e 72 91
e 72 93
e 72 94
e 72 97
e 72 98
e 72 99
e 72 100
e 73 74
e 73 76
e 73 77
e 73 78
e 73 80
e 73 81
e 73 83
e 73 87
e 73 90
e 73 92
e 73 93
e 73 99
e 73 100
e 74 75
e 74 77
e 74 80
e 74 84
e 74 85
e 74 86
e 74 87
e 74 88
e 74 90
e 74 92
e 74 93
e 74 98
e 75 79
e 75 82
e 75 83
e 75 85
e 75 87
e 75 90
e 75 93
e 75 95
e 75 96
e 75 97
e 75 99
e 76 77
e 76 78
e 76 80
e 76 81
e 76 84
e 76 85
e 76 86
e 76 87
e 76 88
e 76 90
e 76 91
e 76 92
e 76 95
e 76 96
e 76 98
e 76 100
e 77 80
e 77 81
e 77 83
e 77 85
e 77 87
e 77 88
e 77 89
e 77 91
e 77 92
e 77 96
e 77 97
e 77 98
e 77 100
e 78 79
e 78 82
e 78 83
e 78 88
e 78 90
e 78 91
e 78 92
e 78 93
e 78 95
e 78 97
e 78 98
e 78 100
e 79 81
e 79 84
e 79 85
e 79 86
e 79 89
e 79 91
e 79 92
e 79 93
e 79 97
e 79 100
e 80 81
e 80 83
e 80 84
e 80 87
e 80 89
e 80 91
e 80 92
e 80 94
e 80 95
e 80 96
e 80 97
e 80 98
e 80 100
e 81 89
e 81 91
e 81 92
e 81 95
e 81 96
e 81 100
e 82 83
e 82 84
e 82 87
e 82 89
e 82 90
e 82 94
e 82 97
e 82 100
e 83 86
e 83 89
e 83 90
e 83 95
e 83 96
e 83 97
e 84 85
e 84 87
e 84 88
e 84 91
e 84 93
e 84 94
e 84 96
e 84 98
e 85 87
e 85 89
e 85 90
e 85 91
e 85 92
e 85 94
e 85 95
e 85 96
e 85 100
e 86 90
e 86 91
e 86 92
e 86 93
e 86 94
e 86 95
e 86 97
e 86 98
e 87 93
e 87 95
e 87 98
e 88 91
e 88 92
e 88 93
e 88 94
e 88 96
e 88 97
e 88 99
e 89 90
e 89 92
e 89 94
e 89 98
e 89 99
e 89 100
e 90 91
e 90 94
e 90 95
e 90 96
e 91 92
e 91 93
e 91 94
e 91 95
e 91 97
e 92 93
e 92 94
e 92 99
e 93 94
e 93 96
e 93 97
e 93 99
e 94 95
e 94 96
e 94 97
e 94 99
e 94 100
e 95 98
e 95 100
e 96 98
e 96 99
e 96 100
e 97 99
